66402.31
38 40 41 39 71 70 69 68 67 66 65 64 63 62 61 59 42 58 60 57 55 53 51 49 46 44 43 45 47 48 50 52 54 56 28 30 29 27 26 25 23 22 20 18 19 21 24 17 16 5 4 3 2 1 0 143 116 114 115 142 141 140 139 138 137 136 135 134 133 132 131 130 119 118 117 108 110 92 89 88 112 113 87 86 85 84 83 82 81 80 78 79 90 91 111 109 94 93 77 76 75 74 72 73 99 100 97 96 95 107 106 98 101 105 103 102 104 120 121 122 123 124 125 126 127 128 129 9 10 11 8 7 6 14 15 31 32 33 34 35 36 12 13 37